c FILE			: n20.gr
c No. of vertices	: 20
c No. of directed edges	: 40
c Max. weight		: 100
c Min. weight		: 0
c A directed arc from u to v of weight w
c is represented below as ' a  u  v  w '
p sp 20 40
a 1 8 93
a 2 7 8
a 2 19 27
a 2 17 65
a 3 4 87
a 3 15 2
a 4 13 66
a 4 5 57
a 4 20 82
a 4 1 68
a 5 16 22
a 5 14 99
a 6 12 99
a 6 11 94
a 7 18 38
a 7 13 33
a 8 3 55
a 9 17 21
a 9 7 95
a 10 18 12
a 10 13 58
a 10 7 60
a 11 2 20
a 11 9 65
a 12 10 4
a 12 3 27
a 12 19 44
a 13 7 65
a 13 3 21
a 14 10 98
a 14 3 58
a 14 17 58
a 15 6 49
a 16 11 61
a 16 19 61
a 16 9 87
a 17 2 84
a 18 20 17
a 19 4 21
a 20 19 78
